67
150
104	1
102	1
100	1
99	1
97	1
96	1
95	1
94	2
93	1
92	2
91	1
90	2
88	2
87	2
86	2
85	1
84	1
83	3
82	1
81	2
80	1
78	1
77	2
75	1
73	1
72	2
71	1
70	1
68	1
67	1
66	2
64	2
63	1
62	1
60	1
58	1
57	1
55	3
54	2
52	1
51	1
49	1
48	2
47	2
46	1
43	1
42	1
41	1
40	1
38	1
37	1
36	2
35	2
34	2
33	3
32	1
30	3
29	1
28	1
26	1
25	4
24	1
22	3
21	3
19	2
18	1
16	1
